p cnf 8 60
-5 -7 -1 1 2 3 4 5 6 7 8 0
-3 -6 -7 -8 -4 2 3 4 5 6 7 8
-4 -5 -6 -7 -8 1 2 3 4 5 6 7 8 0
 8 3 4 0
-8 -6 -1 -5 -4 -2 -3 1 2 3 4 5 6 7 8
 1 5 6 0
-2 -1 -7 -4 -3 -5 1 2 3 4 5 6 7 8
 2 4 5 6 7 8
-7 1 2 3 4 6 7 8 0
-5 8 1 2 5 0
 3 4 6 0
-1 -4 -7 -8 1 2 3 4 5 6 7 8
-5 -7 -8 -3 -4 3 4 5 7 8 0
-4 -8 8 4 0
-8 -4 -6 -7 -5 -3 2 3 4 5 6 7 8
-7 -1 1 2 3 4 5 6 7 8
-4 -1 -5 1 4 5 0
-5 1 2 3 4 5 6 8 0
 1 2 5
-6 1 3 4 6 0
-5 -1 -4 -8 -7 -6 -2 -3 1 2 3 4 5 6 7 8
 1 2 3 5 6 7
-7 -4 -5 -6 2 4 5 6 7 8
-7 -5 2 5 7
-6 -1 1 2 4 5 6
-4 4
-2 -8 -7 -5 2 3 5 6 7 8
-6 -7 -8 8 1 6 7 0
